NAME: line_100_1
TYPE: TSP
COMMENT: line_100_1
DIMENSION: 100
EDGE_WEIGHT_TYPE: EUC_2D
NODE_COORD_SECTION
1 0.0 850.0
2 0.0 573.0
3 0.0 410.0
4 0.0 321.0
5 0.0 655.0
6 0.0 69.0
7 0.0 405.0
8 0.0 502.0
9 0.0 984.0
10 0.0 508.0
11 0.0 4.0
12 0.0 557.0
13 0.0 35.0
14 0.0 101.0
15 0.0 167.0
16 0.0 761.0
17 0.0 280.0
18 0.0 810.0
19 0.0 635.0
20 0.0 612.0
21 0.0 77.0
22 0.0 782.0
23 0.0 231.0
24 0.0 132.0
25 0.0 957.0
26 0.0 352.0
27 0.0 355.0
28 0.0 651.0
29 0.0 521.0
30 0.0 488.0
31 0.0 635.0
32 0.0 257.0
33 0.0 419.0
34 0.0 922.0
35 0.0 196.0
36 0.0 981.0
37 0.0 52.0
38 0.0 121.0
39 0.0 310.0
40 0.0 500.0
41 0.0 912.0
42 0.0 424.0
43 0.0 402.0
44 0.0 488.0
45 0.0 642.0
46 0.0 932.0
47 0.0 423.0
48 0.0 53.0
49 0.0 122.0
50 0.0 422.0
51 0.0 917.0
52 0.0 328.0
53 0.0 990.0
54 0.0 446.0
55 0.0 933.0
56 0.0 907.0
57 0.0 114.0
58 0.0 683.0
59 0.0 682.0
60 0.0 904.0
61 0.0 476.0
62 0.0 199.0
63 0.0 1.0
64 0.0 300.0
65 0.0 742.0
66 0.0 739.0
67 0.0 583.0
68 0.0 465.0
69 0.0 494.0
70 0.0 329.0
71 0.0 237.0
72 0.0 732.0
73 0.0 252.0
74 0.0 893.0
75 0.0 41.0
76 0.0 32.0
77 0.0 953.0
78 0.0 607.0
79 0.0 796.0
80 0.0 345.0
81 0.0 967.0
82 0.0 753.0
83 0.0 799.0
84 0.0 327.0
85 0.0 575.0
86 0.0 331.0
87 0.0 262.0
88 0.0 901.0
89 0.0 350.0
90 0.0 79.0
91 0.0 382.0
92 0.0 287.0
93 0.0 590.0
94 0.0 786.0
95 0.0 376.0
96 0.0 222.0
97 0.0 50.0
98 0.0 807.0
99 0.0 767.0
100 0.0 715.0
